
Gurobi 9.5.1 (linux64) logging started Mon Apr  4 12:17:08 2022

Set parameter LogFile to value "../results/logs/log_2022_04_04_12_17.csv_17_250.log"
Gurobi Optimizer version 9.5.1 build v9.5.1rc2 (linux64)
Thread count: 8 physical cores, 8 logical processors, using up to 8 threads
Optimize a model with 1003 rows, 8078 columns and 27347 nonzeros
Model fingerprint: 0xfeab5514
Variable types: 0 continuous, 8078 integer (8078 binary)
Coefficient statistics:
  Matrix range     [1e+00, 2e+01]
  Objective range  [1e+00, 1e+00]
  Bounds range     [1e+00, 1e+00]
  RHS range        [1e+00, 2e+02]
Found heuristic solution: objective 2061.0000000
Presolve removed 33 rows and 6571 columns
Presolve time: 0.03s
Presolved: 970 rows, 1507 columns, 17213 nonzeros
Variable types: 0 continuous, 1507 integer (1423 binary)
Found heuristic solution: objective 2111.0000000

Root relaxation: objective 2.547778e+03, 852 iterations, 0.01 seconds (0.02 work units)

    Nodes    |    Current Node    |     Objective Bounds      |     Work
 Expl Unexpl |  Obj  Depth IntInf | Incumbent    BestBd   Gap | It/Node Time

     0     0 2547.77825    0  106 2111.00000 2547.77825  20.7%     -    0s
H    0     0                    2493.0000000 2547.77825  2.20%     -    0s
H    0     0                    2498.0000000 2547.77825  1.99%     -    0s
H    0     0                    2501.0000000 2547.77825  1.87%     -    0s
H    0     0                    2514.0000000 2547.77825  1.34%     -    0s
H    0     0                    2521.0000000 2547.77825  1.06%     -    0s
     0     0 2541.62783    0  171 2521.00000 2541.62783  0.82%     -    0s
H    0     0                    2529.0000000 2541.62783  0.50%     -    0s
     0     0 2540.93640    0  175 2529.00000 2540.93640  0.47%     -    0s
     0     0 2540.85908    0  172 2529.00000 2540.85908  0.47%     -    0s
     0     0 2540.84281    0  172 2529.00000 2540.84281  0.47%     -    0s
H    0     0                    2532.0000000 2537.60735  0.22%     -    0s
     0     0 2537.60735    0  149 2532.00000 2537.60735  0.22%     -    0s
     0     0 2536.83334    0  140 2532.00000 2536.83334  0.19%     -    0s
     0     0 2536.74565    0  141 2532.00000 2536.74565  0.19%     -    0s
     0     0 2536.70163    0  125 2532.00000 2536.70163  0.19%     -    0s
H    0     0                    2533.0000000 2536.70163  0.15%     -    0s
     0     0 2535.50648    0   92 2533.00000 2535.50648  0.10%     -    0s
     0     0 2535.08378    0   69 2533.00000 2535.08378  0.08%     -    0s
     0     0 2534.94059    0   55 2533.00000 2534.94059  0.08%     -    0s
     0     0 2534.93405    0   57 2533.00000 2534.93405  0.08%     -    0s
     0     0 2534.91142    0  101 2533.00000 2534.91142  0.08%     -    0s
     0     0 2534.90222    0   78 2533.00000 2534.90222  0.08%     -    0s
     0     0 2534.90049    0   81 2533.00000 2534.90049  0.08%     -    0s
     0     0 2534.79725    0   89 2533.00000 2534.79725  0.07%     -    0s
     0     0 2534.79725    0   40 2533.00000 2534.79725  0.07%     -    0s
     0     0 2534.79725    0   63 2533.00000 2534.79725  0.07%     -    0s
     0     0 2534.79725    0   64 2533.00000 2534.79725  0.07%     -    0s
     0     0 2534.79725    0   54 2533.00000 2534.79725  0.07%     -    0s
     0     0 2534.79725    0   49 2533.00000 2534.79725  0.07%     -    0s
     0     0 2534.79725    0   50 2533.00000 2534.79725  0.07%     -    0s
     0     0 2534.79725    0   51 2533.00000 2534.79725  0.07%     -    0s
     0     0 2534.71224    0   45 2533.00000 2534.71224  0.07%     -    0s
     0     0 2534.52728    0   52 2533.00000 2534.52728  0.06%     -    0s
     0     0 2534.46683    0   48 2533.00000 2534.46683  0.06%     -    0s
     0     0 2534.43858    0   54 2533.00000 2534.43858  0.06%     -    0s
     0     0 2534.43063    0   52 2533.00000 2534.43063  0.06%     -    0s
     0     0 2534.42641    0   60 2533.00000 2534.42641  0.06%     -    0s
     0     0 2534.42641    0   61 2533.00000 2534.42641  0.06%     -    0s
     0     0 2534.05480    0   51 2533.00000 2534.05480  0.04%     -    0s

Cutting planes:
  Gomory: 29
  Lift-and-project: 2
  Cover: 2
  Implied bound: 10
  Clique: 3
  MIR: 46
  StrongCG: 8
  GUB cover: 30
  RLT: 20
  Relax-and-lift: 5

Explored 1 nodes (3334 simplex iterations) in 0.47 seconds (0.40 work units)
Thread count was 8 (of 8 available processors)

Solution count 10: 2533 2532 2532 ... 2498

Optimal solution found (tolerance 0.00e+00)
Best objective 2.533000000000e+03, best bound 2.533000000000e+03, gap 0.0000%

Gurobi 9.5.1 (linux64) logging started Mon Apr  4 16:12:20 2022

Set parameter LogFile to value "../results/logs/log_2022_04_04_12_17.csv_17_250.log"
Gurobi Optimizer version 9.5.1 build v9.5.1rc2 (linux64)
Thread count: 8 physical cores, 8 logical processors, using up to 8 threads
Optimize a model with 18469 rows, 913262 columns and 596114 nonzeros
Model fingerprint: 0xe50382fd
Variable types: 0 continuous, 913262 integer (913262 binary)
Coefficient statistics:
  Matrix range     [1e+00, 2e+01]
  Objective range  [1e+00, 1e+00]
  Bounds range     [1e+00, 1e+00]
  RHS range        [1e+00, 2e+02]
Found heuristic solution: objective 231419.00000
Presolve removed 9419 rows and 896349 columns
Presolve time: 0.64s
Presolved: 9050 rows, 16913 columns, 56747 nonzeros
Found heuristic solution: objective 231723.00000
Variable types: 0 continuous, 16913 integer (14174 binary)

Root relaxation: objective 2.332914e+05, 6336 iterations, 0.16 seconds (0.22 work units)

    Nodes    |    Current Node    |     Objective Bounds      |     Work
 Expl Unexpl |  Obj  Depth IntInf | Incumbent    BestBd   Gap | It/Node Time

     0     0 233291.353    0 2717 231723.000 233291.353  0.68%     -    1s
H    0     0                    231760.00000 233291.353  0.66%     -    1s
H    0     0                    231980.00000 233291.353  0.57%     -    1s
H    0     0                    232002.00000 232691.119  0.30%     -    1s
     0     0 232691.119    0 1926 232002.000 232691.119  0.30%     -    1s
H    0     0                    232144.00000 232691.119  0.24%     -    2s
     0     0 232507.277    0 1396 232144.000 232507.277  0.16%     -    2s
     0     0 232493.377    0 1382 232144.000 232493.377  0.15%     -    2s
     0     0 232491.801    0 1382 232144.000 232491.801  0.15%     -    2s
     0     0 232491.635    0 1385 232144.000 232491.635  0.15%     -    2s
     0     0 232416.578    0 1223 232144.000 232416.578  0.12%     -    2s
H    0     0                    232219.00000 232404.154  0.08%     -    3s
     0     0 232404.154    0 1194 232219.000 232404.154  0.08%     -    3s
H    0     0                    232234.00000 232400.500  0.07%     -    3s
     0     0 232400.500    0 1192 232234.000 232400.500  0.07%     -    3s
H    0     0                    232239.00000 232399.818  0.07%     -    3s
     0     0 232399.818    0 1227 232239.000 232399.818  0.07%     -    3s
H    0     0                    232258.00000 232381.420  0.05%     -    3s
     0     0 232381.420    0 1215 232258.000 232381.420  0.05%     -    3s
H    0     0                    232306.00000 232381.420  0.03%     -    4s
     0     0 232376.533    0 1189 232306.000 232376.533  0.03%     -    4s
     0     0 232375.570    0 1168 232306.000 232375.570  0.03%     -    4s
     0     0 232375.242    0 1162 232306.000 232375.242  0.03%     -    4s
     0     0 232368.840    0 1077 232306.000 232368.840  0.03%     -    5s
     0     0 232367.269    0 1147 232306.000 232367.269  0.03%     -    5s
     0     0 232366.666    0 1165 232306.000 232366.666  0.03%     -    5s
     0     0 232362.363    0  985 232306.000 232362.363  0.02%     -    5s
     0     0 232362.363    0  985 232306.000 232362.363  0.02%     -   14s
     0     2 232362.022    0  991 232306.000 232362.022  0.02%     -   15s
H  442   759                    232319.00000 232358.968  0.02%  51.2   18s
H  762  1058                    232320.00000 232358.968  0.02%  46.9   19s
  1132  1537 232337.788  112  406 232320.000 232358.968  0.02%  51.5   20s
H 1618  2056                    232321.00000 232358.968  0.02%  53.0   22s
  2521  2648 232339.166   12 1077 232321.000 232358.370  0.02%  53.6   25s
  2857  2654 232343.606   38 1036 232321.000 232358.370  0.02%  56.0   30s
  2878  2668 232322.254  235  864 232321.000 232340.237  0.01%  55.6   35s
  2897  2680 232334.607   33  686 232321.000 232334.607  0.01%  55.2   40s
H 2911  2554                    232323.00000 232332.979  0.00%  55.0   45s
  2926  2564 232332.014  136  844 232323.000 232332.014  0.00%  54.7   50s
H 2930  2439                    232324.00000 232332.014  0.00%  69.3   53s
H 2931  2317                    232326.00000 232332.014  0.00%  69.3   54s
  2934  2319 232327.523  164  902 232326.000 232332.014  0.00%  69.2   55s
  2955  2333 232332.014   21  780 232326.000 232332.014  0.00%  68.7   60s
  2958  2335 232331.907   90  685 232326.000 232331.907  0.00%  68.6   65s
  2965  2340 232331.520   57  852 232326.000 232331.520  0.00%  68.5   70s
  2970  2343 232331.369  105  532 232326.000 232331.369  0.00%  68.3   75s
H 2975  2229                    232328.00000 232331.322  0.00%  68.2   79s
H 2975  2117                    232329.00000 232331.322  0.00%  68.2   79s
  2977  2119 232331.322   61  985 232329.000 232331.322  0.00%  79.2   80s
  2990  2128 232331.322    6  611 232329.000 232331.322  0.00%  78.8   85s
  3008  2140 232331.322   11  569 232329.000 232331.322  0.00%  78.3   90s
  3026  2152 232331.083  136  407 232329.000 232331.083  0.00%  77.9   95s
  3050  2169 232329.000  128  514 232329.000 232330.962  0.00%  85.9  100s
  3077  2188 232330.644   61  727 232329.000 232330.644  0.00%  91.1  105s
  3138  2231 232330.330  163  189 232329.000 232330.330  0.00%  92.7  110s

Cutting planes:
  Gomory: 36
  Lift-and-project: 74
  Cover: 15
  Implied bound: 3
  Clique: 5
  MIR: 66
  StrongCG: 6
  Flow cover: 242
  GUB cover: 133
  Zero half: 38
  RLT: 38
  Relax-and-lift: 1

Explored 3169 nodes (321126 simplex iterations) in 111.97 seconds (95.91 work units)
Thread count was 8 (of 8 available processors)

Solution count 10: 232329 232329 232329 ... 232328

Optimal solution found (tolerance 0.00e+00)
Best objective 2.323290000000e+05, best bound 2.323290000000e+05, gap 0.0000%
